myproject/instances/20nodes/rnd12_20.tsp
NAME : rnd12_20.tsp
TYPE : TSP
DIMENSION : 20
EDGE_WEIGHT_TYPE : EUC_2D
NODE_COORD_SECTION
1 874 823
2 460 713
3 626 974
4 894 840
5 42 944
6 577 661
7 499 893
8 681 879
9 585 152
10 696 702
11 720 757
12 185 559
13 441 157
14 314 311
15 871 297
16 82 468
17 708 347
18 421 211
19 853 600
20 881 606
